units		lj
atom_style	hybrid sphere dipole molecular

dimension	3 
boundary	p p p
processors	* * 1   				# set the number of MPI processors in Lz direction to 1

read_restart continue.dat

group		mem		type 1  		# membrane
group		spiral		type 2:1441		# rigid polymer 

set group all mass 1.0

################ membrane parameters ################
variable	rc_global	equal	2.6
variable	rc		equal	2.6
variable	rmin		equal	1.12
variable	mu		equal	3
variable	zeta		equal	4
variable	eps		equal	4.34
variable	sigma		equal	1.00
variable	theta0_11	equal	0

################ interaction parameters ################
# membrane 1 with membrane spiral bead 4 (upper):
variable	sigma_spiral	equal	1.00
variable	sigma_mu	equal	(${sigma}+${sigma_spiral})/2
variable	eps_mu		equal	2
variable	rc_mu		equal	(1.122462)*(${sigma_spiral}+${sigma})/2
# membrane 1 with membrane spiral bead 2,3 (inner, outer):
variable	sigma_spiral	equal	1.00
variable	sigma_ms	equal	(${sigma}+${sigma_spiral})/2
variable	eps_ms		equal	4
variable	rc_ms		equal	(1.122462)*(${sigma_spiral}+${sigma})/2*1.3
# volume exclusion between spiral beads 2,3,4:
variable	eps_ss		equal	2
variable	sigma_ss	equal	${sigma_spiral}
variable	rc_ss		equal	(1.122462)*${sigma_spiral}

################ bonds initial ################
bond_style	harmonic
#bonds_initial
bond_coeff	1	0	1.37
bond_coeff	2	0	1.5864740779476987
bond_coeff	3	0	1.5786432065732843
bond_coeff	4	0	1.5864740779476987
bond_coeff	5	0	1.37
bond_coeff	6	0	1.5786432065732843
bond_coeff	7	0	1.5786432065732845
bond_coeff	8	0	1.5786432065732845
bond_coeff	9	0	1.3519083019415903
bond_coeff	10	0	1.37
bond_coeff	11	0	1.5864740779476987
bond_coeff	12	0	1.5786432065732843
bond_coeff	13	0	1.5864740779476987
bond_coeff	14	0	1.37
bond_coeff	15	0	1.5786432065732843
bond_coeff	16	0	1.5786432065732845
bond_coeff	17	0	1.5786432065732845
bond_coeff	18	0	1.3519083019415903
bond_coeff	19	0	1.37
bond_coeff	20	0	1.5864740779476987
bond_coeff	21	0	1.5786432065732843
bond_coeff	22	0	1.5864740779476987
bond_coeff	23	0	1.37
bond_coeff	24	0	1.5786432065732843
bond_coeff	25	0	1.5786432065732845
bond_coeff	26	0	1.5786432065732845
bond_coeff	27	0	1.3519083019415903
bond_coeff	28	0	1.37
bond_coeff	29	0	1.5864740779476987
bond_coeff	30	0	1.5786432065732843
bond_coeff	31	0	1.5864740779476987
bond_coeff	32	0	1.37
bond_coeff	33	0	1.5786432065732843
bond_coeff	34	0	1.5786432065732845
bond_coeff	35	0	1.5786432065732845
bond_coeff	36	0	1.3519083019415903
bond_coeff	37	0	1.37
bond_coeff	38	0	1.5864740779476987
bond_coeff	39	0	1.5786432065732843
bond_coeff	40	0	1.5864740779476987
bond_coeff	41	0	1.37
bond_coeff	42	0	1.5786432065732843
bond_coeff	43	0	1.5786432065732845
bond_coeff	44	0	1.5786432065732845
bond_coeff	45	0	1.3519083019415903
bond_coeff	46	0	1.37
bond_coeff	47	0	1.5864740779476987
bond_coeff	48	0	1.5786432065732843
bond_coeff	49	0	1.5864740779476987
bond_coeff	50	0	1.37
bond_coeff	51	0	1.5786432065732843
bond_coeff	52	0	1.5786432065732845
bond_coeff	53	0	1.5786432065732845
bond_coeff	54	0	1.3519083019415903
bond_coeff	55	0	1.37
bond_coeff	56	0	1.5864740779476987
bond_coeff	57	0	1.5786432065732843
bond_coeff	58	0	1.5864740779476987
bond_coeff	59	0	1.37
bond_coeff	60	0	1.5786432065732843
bond_coeff	61	0	1.5786432065732845
bond_coeff	62	0	1.5786432065732845
bond_coeff	63	0	1.3519083019415903
bond_coeff	64	0	1.37
bond_coeff	65	0	1.5864740779476987
bond_coeff	66	0	1.5786432065732843
bond_coeff	67	0	1.5864740779476987
bond_coeff	68	0	1.37
bond_coeff	69	0	1.5786432065732843
bond_coeff	70	0	1.5786432065732845
bond_coeff	71	0	1.5786432065732845
bond_coeff	72	0	1.3519083019415903
bond_coeff	73	0	1.37
bond_coeff	74	0	1.5864740779476987
bond_coeff	75	0	1.5786432065732843
bond_coeff	76	0	1.5864740779476987
bond_coeff	77	0	1.37
bond_coeff	78	0	1.5786432065732843
bond_coeff	79	0	1.5786432065732845
bond_coeff	80	0	1.5786432065732845
bond_coeff	81	0	1.3519083019415903
bond_coeff	82	0	1.37
bond_coeff	83	0	1.5864740779476987
bond_coeff	84	0	1.5786432065732843
bond_coeff	85	0	1.5864740779476987
bond_coeff	86	0	1.37
bond_coeff	87	0	1.5786432065732843
bond_coeff	88	0	1.5786432065732845
bond_coeff	89	0	1.5786432065732845
bond_coeff	90	0	1.3519083019415903
bond_coeff	91	0	1.37
bond_coeff	92	0	1.5864740779476987
bond_coeff	93	0	1.5786432065732843
bond_coeff	94	0	1.5864740779476987
bond_coeff	95	0	1.37
bond_coeff	96	0	1.5786432065732843
bond_coeff	97	0	1.5786432065732845
bond_coeff	98	0	1.5786432065732845
bond_coeff	99	0	1.3519083019415903
bond_coeff	100	0	1.37
bond_coeff	101	0	1.5864740779476987
bond_coeff	102	0	1.5786432065732843
bond_coeff	103	0	1.5864740779476987
bond_coeff	104	0	1.37
bond_coeff	105	0	1.5786432065732843
bond_coeff	106	0	1.5786432065732845
bond_coeff	107	0	1.5786432065732845
bond_coeff	108	0	1.3519083019415903
bond_coeff	109	0	1.37
bond_coeff	110	0	1.5864740779476987
bond_coeff	111	0	1.5786432065732843
bond_coeff	112	0	1.5864740779476987
bond_coeff	113	0	1.37
bond_coeff	114	0	1.5786432065732843
bond_coeff	115	0	1.5786432065732845
bond_coeff	116	0	1.5786432065732845
bond_coeff	117	0	1.3519083019415903
bond_coeff	118	0	1.37
bond_coeff	119	0	1.5864740779476987
bond_coeff	120	0	1.5786432065732843
bond_coeff	121	0	1.5864740779476987
bond_coeff	122	0	1.37
bond_coeff	123	0	1.5786432065732843
bond_coeff	124	0	1.5786432065732845
bond_coeff	125	0	1.5786432065732845
bond_coeff	126	0	1.3519083019415903
bond_coeff	127	0	1.37
bond_coeff	128	0	1.5864740779476987
bond_coeff	129	0	1.5786432065732843
bond_coeff	130	0	1.5864740779476987
bond_coeff	131	0	1.37
bond_coeff	132	0	1.5786432065732843
bond_coeff	133	0	1.5786432065732845
bond_coeff	134	0	1.5786432065732845
bond_coeff	135	0	1.3519083019415903
bond_coeff	136	0	1.37
bond_coeff	137	0	1.5864740779476987
bond_coeff	138	0	1.5786432065732843
bond_coeff	139	0	1.5864740779476987
bond_coeff	140	0	1.37
bond_coeff	141	0	1.5786432065732843
bond_coeff	142	0	1.5786432065732845
bond_coeff	143	0	1.5786432065732845
bond_coeff	144	0	1.3519083019415903
bond_coeff	145	0	1.37
bond_coeff	146	0	1.5864740779476987
bond_coeff	147	0	1.5786432065732843
bond_coeff	148	0	1.5864740779476987
bond_coeff	149	0	1.37
bond_coeff	150	0	1.5786432065732843
bond_coeff	151	0	1.5786432065732845
bond_coeff	152	0	1.5786432065732845
bond_coeff	153	0	1.3519083019415903
bond_coeff	154	0	1.37
bond_coeff	155	0	1.5864740779476987
bond_coeff	156	0	1.5786432065732843
bond_coeff	157	0	1.5864740779476987
bond_coeff	158	0	1.37
bond_coeff	159	0	1.5786432065732843
bond_coeff	160	0	1.5786432065732845
bond_coeff	161	0	1.5786432065732845
bond_coeff	162	0	1.3519083019415903
bond_coeff	163	0	1.37
bond_coeff	164	0	1.5864740779476987
bond_coeff	165	0	1.5786432065732843
bond_coeff	166	0	1.5864740779476987
bond_coeff	167	0	1.37
bond_coeff	168	0	1.5786432065732843
bond_coeff	169	0	1.5786432065732845
bond_coeff	170	0	1.5786432065732845
bond_coeff	171	0	1.3519083019415903
bond_coeff	172	0	1.37
bond_coeff	173	0	1.5864740779476987
bond_coeff	174	0	1.5786432065732843
bond_coeff	175	0	1.5864740779476987
bond_coeff	176	0	1.37
bond_coeff	177	0	1.5786432065732843
bond_coeff	178	0	1.5786432065732845
bond_coeff	179	0	1.5786432065732845
bond_coeff	180	0	1.3519083019415903
bond_coeff	181	0	1.37
bond_coeff	182	0	1.5864740779476987
bond_coeff	183	0	1.5786432065732843
bond_coeff	184	0	1.5864740779476987
bond_coeff	185	0	1.37
bond_coeff	186	0	1.5786432065732843
bond_coeff	187	0	1.5786432065732845
bond_coeff	188	0	1.5786432065732845
bond_coeff	189	0	1.3519083019415903
bond_coeff	190	0	1.37
bond_coeff	191	0	1.5864740779476987
bond_coeff	192	0	1.5786432065732843
bond_coeff	193	0	1.5864740779476987
bond_coeff	194	0	1.37
bond_coeff	195	0	1.5786432065732843
bond_coeff	196	0	1.5786432065732845
bond_coeff	197	0	1.5786432065732845
bond_coeff	198	0	1.3519083019415903
bond_coeff	199	0	1.37
bond_coeff	200	0	1.5864740779476987
bond_coeff	201	0	1.5786432065732843
bond_coeff	202	0	1.5864740779476987
bond_coeff	203	0	1.37
bond_coeff	204	0	1.5786432065732843
bond_coeff	205	0	1.5786432065732845
bond_coeff	206	0	1.5786432065732845
bond_coeff	207	0	1.3519083019415903
bond_coeff	208	0	1.37
bond_coeff	209	0	1.5864740779476987
bond_coeff	210	0	1.5786432065732843
bond_coeff	211	0	1.5864740779476987
bond_coeff	212	0	1.37
bond_coeff	213	0	1.5786432065732843
bond_coeff	214	0	1.5786432065732845
bond_coeff	215	0	1.5786432065732845
bond_coeff	216	0	1.3519083019415903
bond_coeff	217	0	1.37
bond_coeff	218	0	1.5864740779476987
bond_coeff	219	0	1.5786432065732843
bond_coeff	220	0	1.5864740779476987
bond_coeff	221	0	1.37
bond_coeff	222	0	1.5786432065732843
bond_coeff	223	0	1.5786432065732845
bond_coeff	224	0	1.5786432065732845
bond_coeff	225	0	1.3519083019415903
bond_coeff	226	0	1.37
bond_coeff	227	0	1.5864740779476987
bond_coeff	228	0	1.5786432065732843
bond_coeff	229	0	1.5864740779476987
bond_coeff	230	0	1.37
bond_coeff	231	0	1.5786432065732843
bond_coeff	232	0	1.5786432065732845
bond_coeff	233	0	1.5786432065732845
bond_coeff	234	0	1.3519083019415903
bond_coeff	235	0	1.37
bond_coeff	236	0	1.5864740779476987
bond_coeff	237	0	1.5786432065732843
bond_coeff	238	0	1.5864740779476987
bond_coeff	239	0	1.37
bond_coeff	240	0	1.5786432065732843
bond_coeff	241	0	1.5786432065732845
bond_coeff	242	0	1.5786432065732845
bond_coeff	243	0	1.3519083019415903
bond_coeff	244	0	1.37
bond_coeff	245	0	1.5864740779476987
bond_coeff	246	0	1.5786432065732843
bond_coeff	247	0	1.5864740779476987
bond_coeff	248	0	1.37
bond_coeff	249	0	1.5786432065732843
bond_coeff	250	0	1.5786432065732845
bond_coeff	251	0	1.5786432065732845
bond_coeff	252	0	1.3519083019415903
bond_coeff	253	0	1.37
bond_coeff	254	0	1.5864740779476987
bond_coeff	255	0	1.5786432065732843
bond_coeff	256	0	1.5864740779476987
bond_coeff	257	0	1.37
bond_coeff	258	0	1.5786432065732843
bond_coeff	259	0	1.5786432065732845
bond_coeff	260	0	1.5786432065732845
bond_coeff	261	0	1.3519083019415903
bond_coeff	262	0	1.37
bond_coeff	263	0	1.5864740779476987
bond_coeff	264	0	1.5786432065732843
bond_coeff	265	0	1.5864740779476987
bond_coeff	266	0	1.37
bond_coeff	267	0	1.5786432065732843
bond_coeff	268	0	1.5786432065732845
bond_coeff	269	0	1.5786432065732845
bond_coeff	270	0	1.3519083019415903
bond_coeff	271	0	1.37
bond_coeff	272	0	1.5864740779476987
bond_coeff	273	0	1.5786432065732843
bond_coeff	274	0	1.5864740779476987
bond_coeff	275	0	1.37
bond_coeff	276	0	1.5786432065732843
bond_coeff	277	0	1.5786432065732845
bond_coeff	278	0	1.5786432065732845
bond_coeff	279	0	1.3519083019415903
bond_coeff	280	0	1.37
bond_coeff	281	0	1.5864740779476987
bond_coeff	282	0	1.5786432065732843
bond_coeff	283	0	1.5864740779476987
bond_coeff	284	0	1.37
bond_coeff	285	0	1.5786432065732843
bond_coeff	286	0	1.5786432065732845
bond_coeff	287	0	1.5786432065732845
bond_coeff	288	0	1.3519083019415903
bond_coeff	289	0	1.37
bond_coeff	290	0	1.5864740779476987
bond_coeff	291	0	1.5786432065732843
bond_coeff	292	0	1.5864740779476987
bond_coeff	293	0	1.37
bond_coeff	294	0	1.5786432065732843
bond_coeff	295	0	1.5786432065732845
bond_coeff	296	0	1.5786432065732845
bond_coeff	297	0	1.3519083019415903
bond_coeff	298	0	1.37
bond_coeff	299	0	1.5864740779476987
bond_coeff	300	0	1.5786432065732843
bond_coeff	301	0	1.5864740779476987
bond_coeff	302	0	1.37
bond_coeff	303	0	1.5786432065732843
bond_coeff	304	0	1.5786432065732845
bond_coeff	305	0	1.5786432065732845
bond_coeff	306	0	1.3519083019415903
bond_coeff	307	0	1.37
bond_coeff	308	0	1.5864740779476987
bond_coeff	309	0	1.5786432065732843
bond_coeff	310	0	1.5864740779476987
bond_coeff	311	0	1.37
bond_coeff	312	0	1.5786432065732843
bond_coeff	313	0	1.5786432065732845
bond_coeff	314	0	1.5786432065732845
bond_coeff	315	0	1.3519083019415903
bond_coeff	316	0	1.37
bond_coeff	317	0	1.5864740779476987
bond_coeff	318	0	1.5786432065732843
bond_coeff	319	0	1.5864740779476987
bond_coeff	320	0	1.37
bond_coeff	321	0	1.5786432065732843
bond_coeff	322	0	1.5786432065732845
bond_coeff	323	0	1.5786432065732845
bond_coeff	324	0	1.3519083019415903
bond_coeff	325	0	1.37
bond_coeff	326	0	1.5864740779476987
bond_coeff	327	0	1.5786432065732843
bond_coeff	328	0	1.5864740779476987
bond_coeff	329	0	1.37
bond_coeff	330	0	1.5786432065732843
bond_coeff	331	0	1.5786432065732845
bond_coeff	332	0	1.5786432065732845
bond_coeff	333	0	1.3519083019415903
bond_coeff	334	0	1.37
bond_coeff	335	0	1.5864740779476987
bond_coeff	336	0	1.5786432065732843
bond_coeff	337	0	1.5864740779476987
bond_coeff	338	0	1.37
bond_coeff	339	0	1.5786432065732843
bond_coeff	340	0	1.5786432065732845
bond_coeff	341	0	1.5786432065732845
bond_coeff	342	0	1.3519083019415903
bond_coeff	343	0	1.37
bond_coeff	344	0	1.5864740779476987
bond_coeff	345	0	1.5786432065732843
bond_coeff	346	0	1.5864740779476987
bond_coeff	347	0	1.37
bond_coeff	348	0	1.5786432065732843
bond_coeff	349	0	1.5786432065732845
bond_coeff	350	0	1.5786432065732845
bond_coeff	351	0	1.3519083019415903
bond_coeff	352	0	1.37
bond_coeff	353	0	1.5864740779476987
bond_coeff	354	0	1.5786432065732843
bond_coeff	355	0	1.5864740779476987
bond_coeff	356	0	1.37
bond_coeff	357	0	1.5786432065732843
bond_coeff	358	0	1.5786432065732845
bond_coeff	359	0	1.5786432065732845
bond_coeff	360	0	1.3519083019415903
bond_coeff	361	0	1.37
bond_coeff	362	0	1.5864740779476987
bond_coeff	363	0	1.5786432065732843
bond_coeff	364	0	1.5864740779476987
bond_coeff	365	0	1.37
bond_coeff	366	0	1.5786432065732843
bond_coeff	367	0	1.5786432065732845
bond_coeff	368	0	1.5786432065732845
bond_coeff	369	0	1.3519083019415903
bond_coeff	370	0	1.37
bond_coeff	371	0	1.5864740779476987
bond_coeff	372	0	1.5786432065732843
bond_coeff	373	0	1.5864740779476987
bond_coeff	374	0	1.37
bond_coeff	375	0	1.5786432065732843
bond_coeff	376	0	1.5786432065732845
bond_coeff	377	0	1.5786432065732845
bond_coeff	378	0	1.3519083019415903
bond_coeff	379	0	1.37
bond_coeff	380	0	1.5864740779476987
bond_coeff	381	0	1.5786432065732843
bond_coeff	382	0	1.5864740779476987
bond_coeff	383	0	1.37
bond_coeff	384	0	1.5786432065732843
bond_coeff	385	0	1.5786432065732845
bond_coeff	386	0	1.5786432065732845
bond_coeff	387	0	1.3519083019415903
bond_coeff	388	0	1.37
bond_coeff	389	0	1.5864740779476987
bond_coeff	390	0	1.5786432065732843
bond_coeff	391	0	1.5864740779476987
bond_coeff	392	0	1.37
bond_coeff	393	0	1.5786432065732843
bond_coeff	394	0	1.5786432065732845
bond_coeff	395	0	1.5786432065732845
bond_coeff	396	0	1.3519083019415903
bond_coeff	397	0	1.37
bond_coeff	398	0	1.5864740779476987
bond_coeff	399	0	1.5786432065732843
bond_coeff	400	0	1.5864740779476987
bond_coeff	401	0	1.37
bond_coeff	402	0	1.5786432065732843
bond_coeff	403	0	1.5786432065732845
bond_coeff	404	0	1.5786432065732845
bond_coeff	405	0	1.3519083019415903
bond_coeff	406	0	1.37
bond_coeff	407	0	1.5864740779476987
bond_coeff	408	0	1.5786432065732843
bond_coeff	409	0	1.5864740779476987
bond_coeff	410	0	1.37
bond_coeff	411	0	1.5786432065732843
bond_coeff	412	0	1.5786432065732845
bond_coeff	413	0	1.5786432065732845
bond_coeff	414	0	1.3519083019415903
bond_coeff	415	0	1.37
bond_coeff	416	0	1.5864740779476987
bond_coeff	417	0	1.5786432065732843
bond_coeff	418	0	1.5864740779476987
bond_coeff	419	0	1.37
bond_coeff	420	0	1.5786432065732843
bond_coeff	421	0	1.5786432065732845
bond_coeff	422	0	1.5786432065732845
bond_coeff	423	0	1.3519083019415903
bond_coeff	424	0	1.37
bond_coeff	425	0	1.5864740779476987
bond_coeff	426	0	1.5786432065732843
bond_coeff	427	0	1.5864740779476987
bond_coeff	428	0	1.37
bond_coeff	429	0	1.5786432065732843
bond_coeff	430	0	1.5786432065732845
bond_coeff	431	0	1.5786432065732845
bond_coeff	432	0	1.3519083019415903
bond_coeff	433	0	1.37
bond_coeff	434	0	1.5864740779476987
bond_coeff	435	0	1.5786432065732843
bond_coeff	436	0	1.5864740779476987
bond_coeff	437	0	1.37
bond_coeff	438	0	1.5786432065732843
bond_coeff	439	0	1.5786432065732845
bond_coeff	440	0	1.5786432065732845
bond_coeff	441	0	1.3519083019415903
bond_coeff	442	0	1.37
bond_coeff	443	0	1.5864740779476987
bond_coeff	444	0	1.5786432065732843
bond_coeff	445	0	1.5864740779476987
bond_coeff	446	0	1.37
bond_coeff	447	0	1.5786432065732843
bond_coeff	448	0	1.5786432065732845
bond_coeff	449	0	1.5786432065732845
bond_coeff	450	0	1.3519083019415903
bond_coeff	451	0	1.37
bond_coeff	452	0	1.5864740779476987
bond_coeff	453	0	1.5786432065732843
bond_coeff	454	0	1.5864740779476987
bond_coeff	455	0	1.37
bond_coeff	456	0	1.5786432065732843
bond_coeff	457	0	1.5786432065732845
bond_coeff	458	0	1.5786432065732845
bond_coeff	459	0	1.3519083019415903
bond_coeff	460	0	1.37
bond_coeff	461	0	1.5864740779476987
bond_coeff	462	0	1.5786432065732843
bond_coeff	463	0	1.5864740779476987
bond_coeff	464	0	1.37
bond_coeff	465	0	1.5786432065732843
bond_coeff	466	0	1.5786432065732845
bond_coeff	467	0	1.5786432065732845
bond_coeff	468	0	1.3519083019415903
bond_coeff	469	0	1.37
bond_coeff	470	0	1.5864740779476987
bond_coeff	471	0	1.5786432065732843
bond_coeff	472	0	1.5864740779476987
bond_coeff	473	0	1.37
bond_coeff	474	0	1.5786432065732843
bond_coeff	475	0	1.5786432065732845
bond_coeff	476	0	1.5786432065732845
bond_coeff	477	0	1.3519083019415903
bond_coeff	478	0	1.37
bond_coeff	479	0	1.5864740779476987
bond_coeff	480	0	1.5786432065732843
bond_coeff	481	0	1.5864740779476987
bond_coeff	482	0	1.37
bond_coeff	483	0	1.5786432065732843
bond_coeff	484	0	1.5786432065732845
bond_coeff	485	0	1.5786432065732845
bond_coeff	486	0	1.3519083019415903
bond_coeff	487	0	1.37
bond_coeff	488	0	1.5864740779476987
bond_coeff	489	0	1.5786432065732843
bond_coeff	490	0	1.5864740779476987
bond_coeff	491	0	1.37
bond_coeff	492	0	1.5786432065732843
bond_coeff	493	0	1.5786432065732845
bond_coeff	494	0	1.5786432065732845
bond_coeff	495	0	1.3519083019415903
bond_coeff	496	0	1.37
bond_coeff	497	0	1.5864740779476987
bond_coeff	498	0	1.5786432065732843
bond_coeff	499	0	1.5864740779476987
bond_coeff	500	0	1.37
bond_coeff	501	0	1.5786432065732843
bond_coeff	502	0	1.5786432065732845
bond_coeff	503	0	1.5786432065732845
bond_coeff	504	0	1.3519083019415903
bond_coeff	505	0	1.37
bond_coeff	506	0	1.5864740779476987
bond_coeff	507	0	1.5786432065732843
bond_coeff	508	0	1.5864740779476987
bond_coeff	509	0	1.37
bond_coeff	510	0	1.5786432065732843
bond_coeff	511	0	1.5786432065732845
bond_coeff	512	0	1.5786432065732845
bond_coeff	513	0	1.3519083019415903
bond_coeff	514	0	1.37
bond_coeff	515	0	1.5864740779476987
bond_coeff	516	0	1.5786432065732843
bond_coeff	517	0	1.5864740779476987
bond_coeff	518	0	1.37
bond_coeff	519	0	1.5786432065732843
bond_coeff	520	0	1.5786432065732845
bond_coeff	521	0	1.5786432065732845
bond_coeff	522	0	1.3519083019415903
bond_coeff	523	0	1.37
bond_coeff	524	0	1.5864740779476987
bond_coeff	525	0	1.5786432065732843
bond_coeff	526	0	1.5864740779476987
bond_coeff	527	0	1.37
bond_coeff	528	0	1.5786432065732843
bond_coeff	529	0	1.5786432065732845
bond_coeff	530	0	1.5786432065732845
bond_coeff	531	0	1.3519083019415903
bond_coeff	532	0	1.37
bond_coeff	533	0	1.5864740779476987
bond_coeff	534	0	1.5786432065732843
bond_coeff	535	0	1.5864740779476987
bond_coeff	536	0	1.37
bond_coeff	537	0	1.5786432065732843
bond_coeff	538	0	1.5786432065732845
bond_coeff	539	0	1.5786432065732845
bond_coeff	540	0	1.3519083019415903
bond_coeff	541	0	1.37
bond_coeff	542	0	1.5864740779476987
bond_coeff	543	0	1.5786432065732843
bond_coeff	544	0	1.5864740779476987
bond_coeff	545	0	1.37
bond_coeff	546	0	1.5786432065732843
bond_coeff	547	0	1.5786432065732845
bond_coeff	548	0	1.5786432065732845
bond_coeff	549	0	1.3519083019415903
bond_coeff	550	0	1.37
bond_coeff	551	0	1.5864740779476987
bond_coeff	552	0	1.5786432065732843
bond_coeff	553	0	1.5864740779476987
bond_coeff	554	0	1.37
bond_coeff	555	0	1.5786432065732843
bond_coeff	556	0	1.5786432065732845
bond_coeff	557	0	1.5786432065732845
bond_coeff	558	0	1.3519083019415903
bond_coeff	559	0	1.37
bond_coeff	560	0	1.5864740779476987
bond_coeff	561	0	1.5786432065732843
bond_coeff	562	0	1.5864740779476987
bond_coeff	563	0	1.37
bond_coeff	564	0	1.5786432065732843
bond_coeff	565	0	1.5786432065732845
bond_coeff	566	0	1.5786432065732845
bond_coeff	567	0	1.3519083019415903
bond_coeff	568	0	1.37
bond_coeff	569	0	1.5864740779476987
bond_coeff	570	0	1.5786432065732843
bond_coeff	571	0	1.5864740779476987
bond_coeff	572	0	1.37
bond_coeff	573	0	1.5786432065732843
bond_coeff	574	0	1.5786432065732845
bond_coeff	575	0	1.5786432065732845
bond_coeff	576	0	1.3519083019415903
bond_coeff	577	0	1.37
bond_coeff	578	0	1.5864740779476987
bond_coeff	579	0	1.5786432065732843
bond_coeff	580	0	1.5864740779476987
bond_coeff	581	0	1.37
bond_coeff	582	0	1.5786432065732843
bond_coeff	583	0	1.5786432065732845
bond_coeff	584	0	1.5786432065732845
bond_coeff	585	0	1.3519083019415903
bond_coeff	586	0	1.37
bond_coeff	587	0	1.5864740779476987
bond_coeff	588	0	1.5786432065732843
bond_coeff	589	0	1.5864740779476987
bond_coeff	590	0	1.37
bond_coeff	591	0	1.5786432065732843
bond_coeff	592	0	1.5786432065732845
bond_coeff	593	0	1.5786432065732845
bond_coeff	594	0	1.3519083019415903
bond_coeff	595	0	1.37
bond_coeff	596	0	1.5864740779476987
bond_coeff	597	0	1.5786432065732843
bond_coeff	598	0	1.5864740779476987
bond_coeff	599	0	1.37
bond_coeff	600	0	1.5786432065732843
bond_coeff	601	0	1.5786432065732845
bond_coeff	602	0	1.5786432065732845
bond_coeff	603	0	1.3519083019415903
bond_coeff	604	0	1.37
bond_coeff	605	0	1.5864740779476987
bond_coeff	606	0	1.5786432065732843
bond_coeff	607	0	1.5864740779476987
bond_coeff	608	0	1.37
bond_coeff	609	0	1.5786432065732843
bond_coeff	610	0	1.5786432065732845
bond_coeff	611	0	1.5786432065732845
bond_coeff	612	0	1.3519083019415903
bond_coeff	613	0	1.37
bond_coeff	614	0	1.5864740779476987
bond_coeff	615	0	1.5786432065732843
bond_coeff	616	0	1.5864740779476987
bond_coeff	617	0	1.37
bond_coeff	618	0	1.5786432065732843
bond_coeff	619	0	1.5786432065732845
bond_coeff	620	0	1.5786432065732845
bond_coeff	621	0	1.3519083019415903
bond_coeff	622	0	1.37
bond_coeff	623	0	1.5864740779476987
bond_coeff	624	0	1.5786432065732843
bond_coeff	625	0	1.5864740779476987
bond_coeff	626	0	1.37
bond_coeff	627	0	1.5786432065732843
bond_coeff	628	0	1.5786432065732845
bond_coeff	629	0	1.5786432065732845
bond_coeff	630	0	1.3519083019415903
bond_coeff	631	0	1.37
bond_coeff	632	0	1.5864740779476987
bond_coeff	633	0	1.5786432065732843
bond_coeff	634	0	1.5864740779476987
bond_coeff	635	0	1.37
bond_coeff	636	0	1.5786432065732843
bond_coeff	637	0	1.5786432065732845
bond_coeff	638	0	1.5786432065732845
bond_coeff	639	0	1.3519083019415903
bond_coeff	640	0	1.37
bond_coeff	641	0	1.5864740779476987
bond_coeff	642	0	1.5786432065732843
bond_coeff	643	0	1.5864740779476987
bond_coeff	644	0	1.37
bond_coeff	645	0	1.5786432065732843
bond_coeff	646	0	1.5786432065732845
bond_coeff	647	0	1.5786432065732845
bond_coeff	648	0	1.3519083019415903
bond_coeff	649	0	1.37
bond_coeff	650	0	1.5864740779476987
bond_coeff	651	0	1.5786432065732843
bond_coeff	652	0	1.5864740779476987
bond_coeff	653	0	1.37
bond_coeff	654	0	1.5786432065732843
bond_coeff	655	0	1.5786432065732845
bond_coeff	656	0	1.5786432065732845
bond_coeff	657	0	1.3519083019415903
bond_coeff	658	0	1.37
bond_coeff	659	0	1.5864740779476987
bond_coeff	660	0	1.5786432065732843
bond_coeff	661	0	1.5864740779476987
bond_coeff	662	0	1.37
bond_coeff	663	0	1.5786432065732843
bond_coeff	664	0	1.5786432065732845
bond_coeff	665	0	1.5786432065732845
bond_coeff	666	0	1.3519083019415903
bond_coeff	667	0	1.37
bond_coeff	668	0	1.5864740779476987
bond_coeff	669	0	1.5786432065732843
bond_coeff	670	0	1.5864740779476987
bond_coeff	671	0	1.37
bond_coeff	672	0	1.5786432065732843
bond_coeff	673	0	1.5786432065732845
bond_coeff	674	0	1.5786432065732845
bond_coeff	675	0	1.3519083019415903
bond_coeff	676	0	1.37
bond_coeff	677	0	1.5864740779476987
bond_coeff	678	0	1.5786432065732843
bond_coeff	679	0	1.5864740779476987
bond_coeff	680	0	1.37
bond_coeff	681	0	1.5786432065732843
bond_coeff	682	0	1.5786432065732845
bond_coeff	683	0	1.5786432065732845
bond_coeff	684	0	1.3519083019415903
bond_coeff	685	0	1.37
bond_coeff	686	0	1.5864740779476987
bond_coeff	687	0	1.5786432065732843
bond_coeff	688	0	1.5864740779476987
bond_coeff	689	0	1.37
bond_coeff	690	0	1.5786432065732843
bond_coeff	691	0	1.5786432065732845
bond_coeff	692	0	1.5786432065732845
bond_coeff	693	0	1.3519083019415903
bond_coeff	694	0	1.37
bond_coeff	695	0	1.5864740779476987
bond_coeff	696	0	1.5786432065732843
bond_coeff	697	0	1.5864740779476987
bond_coeff	698	0	1.37
bond_coeff	699	0	1.5786432065732843
bond_coeff	700	0	1.5786432065732845
bond_coeff	701	0	1.5786432065732845
bond_coeff	702	0	1.3519083019415903
bond_coeff	703	0	1.37
bond_coeff	704	0	1.5864740779476987
bond_coeff	705	0	1.5786432065732843
bond_coeff	706	0	1.5864740779476987
bond_coeff	707	0	1.37
bond_coeff	708	0	1.5786432065732843
bond_coeff	709	0	1.5786432065732845
bond_coeff	710	0	1.5786432065732845
bond_coeff	711	0	1.3519083019415903
bond_coeff	712	0	1.37
bond_coeff	713	0	1.5864740779476987
bond_coeff	714	0	1.5786432065732843
bond_coeff	715	0	1.5864740779476987
bond_coeff	716	0	1.37
bond_coeff	717	0	1.5786432065732843
bond_coeff	718	0	1.5786432065732845
bond_coeff	719	0	1.5786432065732845
bond_coeff	720	0	1.3519083019415903
bond_coeff	721	0	1.37
bond_coeff	722	0	1.5864740779476987
bond_coeff	723	0	1.5786432065732843
bond_coeff	724	0	1.5864740779476987
bond_coeff	725	0	1.37
bond_coeff	726	0	1.5786432065732843
bond_coeff	727	0	1.5786432065732845
bond_coeff	728	0	1.5786432065732845
bond_coeff	729	0	1.3519083019415903
bond_coeff	730	0	1.37
bond_coeff	731	0	1.5864740779476987
bond_coeff	732	0	1.5786432065732843
bond_coeff	733	0	1.5864740779476987
bond_coeff	734	0	1.37
bond_coeff	735	0	1.5786432065732843
bond_coeff	736	0	1.5786432065732845
bond_coeff	737	0	1.5786432065732845
bond_coeff	738	0	1.3519083019415903
bond_coeff	739	0	1.37
bond_coeff	740	0	1.5864740779476987
bond_coeff	741	0	1.5786432065732843
bond_coeff	742	0	1.5864740779476987
bond_coeff	743	0	1.37
bond_coeff	744	0	1.5786432065732843
bond_coeff	745	0	1.5786432065732845
bond_coeff	746	0	1.5786432065732845
bond_coeff	747	0	1.3519083019415903
bond_coeff	748	0	1.37
bond_coeff	749	0	1.5864740779476987
bond_coeff	750	0	1.5786432065732843
bond_coeff	751	0	1.5864740779476987
bond_coeff	752	0	1.37
bond_coeff	753	0	1.5786432065732843
bond_coeff	754	0	1.5786432065732845
bond_coeff	755	0	1.5786432065732845
bond_coeff	756	0	1.3519083019415903
bond_coeff	757	0	1.37
bond_coeff	758	0	1.5864740779476987
bond_coeff	759	0	1.5786432065732843
bond_coeff	760	0	1.5864740779476987
bond_coeff	761	0	1.37
bond_coeff	762	0	1.5786432065732843
bond_coeff	763	0	1.5786432065732845
bond_coeff	764	0	1.5786432065732845
bond_coeff	765	0	1.3519083019415903
bond_coeff	766	0	1.37
bond_coeff	767	0	1.5864740779476987
bond_coeff	768	0	1.5786432065732843
bond_coeff	769	0	1.5864740779476987
bond_coeff	770	0	1.37
bond_coeff	771	0	1.5786432065732843
bond_coeff	772	0	1.5786432065732845
bond_coeff	773	0	1.5786432065732845
bond_coeff	774	0	1.3519083019415903
bond_coeff	775	0	1.37
bond_coeff	776	0	1.5864740779476987
bond_coeff	777	0	1.5786432065732843
bond_coeff	778	0	1.5864740779476987
bond_coeff	779	0	1.37
bond_coeff	780	0	1.5786432065732843
bond_coeff	781	0	1.5786432065732845
bond_coeff	782	0	1.5786432065732845
bond_coeff	783	0	1.3519083019415903
bond_coeff	784	0	1.37
bond_coeff	785	0	1.5864740779476987
bond_coeff	786	0	1.5786432065732843
bond_coeff	787	0	1.5864740779476987
bond_coeff	788	0	1.37
bond_coeff	789	0	1.5786432065732843
bond_coeff	790	0	1.5786432065732845
bond_coeff	791	0	1.5786432065732845
bond_coeff	792	0	1.3519083019415903
bond_coeff	793	0	1.37
bond_coeff	794	0	1.5864740779476987
bond_coeff	795	0	1.5786432065732843
bond_coeff	796	0	1.5864740779476987
bond_coeff	797	0	1.37
bond_coeff	798	0	1.5786432065732843
bond_coeff	799	0	1.5786432065732845
bond_coeff	800	0	1.5786432065732845
bond_coeff	801	0	1.3519083019415903
bond_coeff	802	0	1.37
bond_coeff	803	0	1.5864740779476987
bond_coeff	804	0	1.5786432065732843
bond_coeff	805	0	1.5864740779476987
bond_coeff	806	0	1.37
bond_coeff	807	0	1.5786432065732843
bond_coeff	808	0	1.5786432065732845
bond_coeff	809	0	1.5786432065732845
bond_coeff	810	0	1.3519083019415903
bond_coeff	811	0	1.37
bond_coeff	812	0	1.5864740779476987
bond_coeff	813	0	1.5786432065732843
bond_coeff	814	0	1.5864740779476987
bond_coeff	815	0	1.37
bond_coeff	816	0	1.5786432065732843
bond_coeff	817	0	1.5786432065732845
bond_coeff	818	0	1.5786432065732845
bond_coeff	819	0	1.3519083019415903
bond_coeff	820	0	1.37
bond_coeff	821	0	1.5864740779476987
bond_coeff	822	0	1.5786432065732843
bond_coeff	823	0	1.5864740779476987
bond_coeff	824	0	1.37
bond_coeff	825	0	1.5786432065732843
bond_coeff	826	0	1.5786432065732845
bond_coeff	827	0	1.5786432065732845
bond_coeff	828	0	1.3519083019415903
bond_coeff	829	0	1.37
bond_coeff	830	0	1.5864740779476987
bond_coeff	831	0	1.5786432065732843
bond_coeff	832	0	1.5864740779476987
bond_coeff	833	0	1.37
bond_coeff	834	0	1.5786432065732843
bond_coeff	835	0	1.5786432065732845
bond_coeff	836	0	1.5786432065732845
bond_coeff	837	0	1.3519083019415903
bond_coeff	838	0	1.37
bond_coeff	839	0	1.5864740779476987
bond_coeff	840	0	1.5786432065732843
bond_coeff	841	0	1.5864740779476987
bond_coeff	842	0	1.37
bond_coeff	843	0	1.5786432065732843
bond_coeff	844	0	1.5786432065732845
bond_coeff	845	0	1.5786432065732845
bond_coeff	846	0	1.3519083019415903
bond_coeff	847	0	1.37
bond_coeff	848	0	1.5864740779476987
bond_coeff	849	0	1.5786432065732843
bond_coeff	850	0	1.5864740779476987
bond_coeff	851	0	1.37
bond_coeff	852	0	1.5786432065732843
bond_coeff	853	0	1.5786432065732845
bond_coeff	854	0	1.5786432065732845
bond_coeff	855	0	1.3519083019415903
bond_coeff	856	0	1.37
bond_coeff	857	0	1.5864740779476987
bond_coeff	858	0	1.5786432065732843
bond_coeff	859	0	1.5864740779476987
bond_coeff	860	0	1.37
bond_coeff	861	0	1.5786432065732843
bond_coeff	862	0	1.5786432065732845
bond_coeff	863	0	1.5786432065732845
bond_coeff	864	0	1.3519083019415903
bond_coeff	865	0	1.37
bond_coeff	866	0	1.5864740779476987
bond_coeff	867	0	1.5786432065732843
bond_coeff	868	0	1.5864740779476987
bond_coeff	869	0	1.37
bond_coeff	870	0	1.5786432065732843
bond_coeff	871	0	1.5786432065732845
bond_coeff	872	0	1.5786432065732845
bond_coeff	873	0	1.3519083019415903
bond_coeff	874	0	1.37
bond_coeff	875	0	1.5864740779476987