units		lj
atom_style	hybrid sphere dipole molecular

dimension	3 
boundary	p p p
processors	* * 1   				# set the number of MPI processors in Lz direction to 1

read_data	"polyspiral.in"				#read_restart continue.dat

group		mem		type 1  		# membrane
group		spiral		type 2:1441		# rigid polymer 

set group all mass 1.0

################ membrane parameters ################
variable	rc_global	equal	2.6
variable	rc		equal	2.6
variable	rmin		equal	1.12
variable	mu		equal	3
variable	zeta		equal	4
variable	eps		equal	4.34
variable	sigma		equal	1.00
variable	theta0_11	equal	0

################ interaction parameters ################
# membrane 1 with membrane spiral bead 4 (upper):
variable	sigma_spiral	equal	1.00
variable	sigma_mu	equal	(${sigma}+${sigma_spiral})/2
variable	eps_mu		equal	2
variable	rc_mu		equal	(1.122462)*(${sigma_spiral}+${sigma})/2
# membrane 1 with membrane spiral bead 2,3 (inner, outer):
variable	sigma_spiral	equal	1.00
variable	sigma_ms	equal	(${sigma}+${sigma_spiral})/2
variable	eps_ms		equal	4
variable	rc_ms		equal	(1.122462)*(${sigma_spiral}+${sigma})/2*1.3
# volume exclusion between spiral beads 2,3,4:
variable	eps_ss		equal	2
variable	sigma_ss	equal	${sigma_spiral}
variable	rc_ss		equal	(1.122462)*${sigma_spiral}

################ bonds initial ################
bond_style	harmonic
#bonds_initial
bond_coeff	1	600	1.37
bond_coeff	2	600	1.5864740779476987
bond_coeff	3	600	1.5786432065732843
bond_coeff	4	600	1.5864740779476987
bond_coeff	5	600	1.37
bond_coeff	6	600	1.5786432065732843
bond_coeff	7	600	1.5786432065732845
bond_coeff	8	600	1.5786432065732845
bond_coeff	9	600	1.3519083019415903
bond_coeff	10	600	1.37
bond_coeff	11	600	1.5864740779476987
bond_coeff	12	600	1.5786432065732843
bond_coeff	13	600	1.5864740779476987
bond_coeff	14	600	1.37
bond_coeff	15	600	1.5786432065732843
bond_coeff	16	600	1.5786432065732845
bond_coeff	17	600	1.5786432065732845
bond_coeff	18	600	1.3519083019415903
bond_coeff	19	600	1.37
bond_coeff	20	600	1.5864740779476987
bond_coeff	21	600	1.5786432065732843
bond_coeff	22	600	1.5864740779476987
bond_coeff	23	600	1.37
bond_coeff	24	600	1.5786432065732843
bond_coeff	25	600	1.5786432065732845
bond_coeff	26	600	1.5786432065732845
bond_coeff	27	600	1.3519083019415903
bond_coeff	28	600	1.37
bond_coeff	29	600	1.5864740779476987
bond_coeff	30	600	1.5786432065732843
bond_coeff	31	600	1.5864740779476987
bond_coeff	32	600	1.37
bond_coeff	33	600	1.5786432065732843
bond_coeff	34	600	1.5786432065732845
bond_coeff	35	600	1.5786432065732845
bond_coeff	36	600	1.3519083019415903
bond_coeff	37	600	1.37
bond_coeff	38	600	1.5864740779476987
bond_coeff	39	600	1.5786432065732843
bond_coeff	40	600	1.5864740779476987
bond_coeff	41	600	1.37
bond_coeff	42	600	1.5786432065732843
bond_coeff	43	600	1.5786432065732845
bond_coeff	44	600	1.5786432065732845
bond_coeff	45	600	1.3519083019415903
bond_coeff	46	600	1.37
bond_coeff	47	600	1.5864740779476987
bond_coeff	48	600	1.5786432065732843
bond_coeff	49	600	1.5864740779476987
bond_coeff	50	600	1.37
bond_coeff	51	600	1.5786432065732843
bond_coeff	52	600	1.5786432065732845
bond_coeff	53	600	1.5786432065732845
bond_coeff	54	600	1.3519083019415903
bond_coeff	55	600	1.37
bond_coeff	56	600	1.5864740779476987
bond_coeff	57	600	1.5786432065732843
bond_coeff	58	600	1.5864740779476987
bond_coeff	59	600	1.37
bond_coeff	60	600	1.5786432065732843
bond_coeff	61	600	1.5786432065732845
bond_coeff	62	600	1.5786432065732845
bond_coeff	63	600	1.3519083019415903
bond_coeff	64	600	1.37
bond_coeff	65	600	1.5864740779476987
bond_coeff	66	600	1.5786432065732843
bond_coeff	67	600	1.5864740779476987
bond_coeff	68	600	1.37
bond_coeff	69	600	1.5786432065732843
bond_coeff	70	600	1.5786432065732845
bond_coeff	71	600	1.5786432065732845
bond_coeff	72	600	1.3519083019415903
bond_coeff	73	600	1.37
bond_coeff	74	600	1.5864740779476987
bond_coeff	75	600	1.5786432065732843
bond_coeff	76	600	1.5864740779476987
bond_coeff	77	600	1.37
bond_coeff	78	600	1.5786432065732843
bond_coeff	79	600	1.5786432065732845
bond_coeff	80	600	1.5786432065732845
bond_coeff	81	600	1.3519083019415903
bond_coeff	82	600	1.37
bond_coeff	83	600	1.5864740779476987
bond_coeff	84	600	1.5786432065732843
bond_coeff	85	600	1.5864740779476987
bond_coeff	86	600	1.37
bond_coeff	87	600	1.5786432065732843
bond_coeff	88	600	1.5786432065732845
bond_coeff	89	600	1.5786432065732845
bond_coeff	90	600	1.3519083019415903
bond_coeff	91	600	1.37
bond_coeff	92	600	1.5864740779476987
bond_coeff	93	600	1.5786432065732843
bond_coeff	94	600	1.5864740779476987
bond_coeff	95	600	1.37
bond_coeff	96	600	1.5786432065732843
bond_coeff	97	600	1.5786432065732845
bond_coeff	98	600	1.5786432065732845
bond_coeff	99	600	1.3519083019415903
bond_coeff	100	600	1.37
bond_coeff	101	600	1.5864740779476987
bond_coeff	102	600	1.5786432065732843
bond_coeff	103	600	1.5864740779476987
bond_coeff	104	600	1.37
bond_coeff	105	600	1.5786432065732843
bond_coeff	106	600	1.5786432065732845
bond_coeff	107	600	1.5786432065732845
bond_coeff	108	600	1.3519083019415903
bond_coeff	109	600	1.37
bond_coeff	110	600	1.5864740779476987
bond_coeff	111	600	1.5786432065732843
bond_coeff	112	600	1.5864740779476987
bond_coeff	113	600	1.37
bond_coeff	114	600	1.5786432065732843
bond_coeff	115	600	1.5786432065732845
bond_coeff	116	600	1.5786432065732845
bond_coeff	117	600	1.3519083019415903
bond_coeff	118	600	1.37
bond_coeff	119	600	1.5864740779476987
bond_coeff	120	600	1.5786432065732843
bond_coeff	121	600	1.5864740779476987
bond_coeff	122	600	1.37
bond_coeff	123	600	1.5786432065732843
bond_coeff	124	600	1.5786432065732845
bond_coeff	125	600	1.5786432065732845
bond_coeff	126	600	1.3519083019415903
bond_coeff	127	600	1.37
bond_coeff	128	600	1.5864740779476987
bond_coeff	129	600	1.5786432065732843
bond_coeff	130	600	1.5864740779476987
bond_coeff	131	600	1.37
bond_coeff	132	600	1.5786432065732843
bond_coeff	133	600	1.5786432065732845
bond_coeff	134	600	1.5786432065732845
bond_coeff	135	600	1.3519083019415903
bond_coeff	136	600	1.37
bond_coeff	137	600	1.5864740779476987
bond_coeff	138	600	1.5786432065732843
bond_coeff	139	600	1.5864740779476987
bond_coeff	140	600	1.37
bond_coeff	141	600	1.5786432065732843
bond_coeff	142	600	1.5786432065732845
bond_coeff	143	600	1.5786432065732845
bond_coeff	144	600	1.3519083019415903
bond_coeff	145	600	1.37
bond_coeff	146	600	1.5864740779476987
bond_coeff	147	600	1.5786432065732843
bond_coeff	148	600	1.5864740779476987
bond_coeff	149	600	1.37
bond_coeff	150	600	1.5786432065732843
bond_coeff	151	600	1.5786432065732845
bond_coeff	152	600	1.5786432065732845
bond_coeff	153	600	1.3519083019415903
bond_coeff	154	600	1.37
bond_coeff	155	600	1.5864740779476987
bond_coeff	156	600	1.5786432065732843
bond_coeff	157	600	1.5864740779476987
bond_coeff	158	600	1.37
bond_coeff	159	600	1.5786432065732843
bond_coeff	160	600	1.5786432065732845
bond_coeff	161	600	1.5786432065732845
bond_coeff	162	600	1.3519083019415903
bond_coeff	163	600	1.37
bond_coeff	164	600	1.5864740779476987
bond_coeff	165	600	1.5786432065732843
bond_coeff	166	600	1.5864740779476987
bond_coeff	167	600	1.37
bond_coeff	168	600	1.5786432065732843
bond_coeff	169	600	1.5786432065732845
bond_coeff	170	600	1.5786432065732845
bond_coeff	171	600	1.3519083019415903
bond_coeff	172	600	1.37
bond_coeff	173	600	1.5864740779476987
bond_coeff	174	600	1.5786432065732843
bond_coeff	175	600	1.5864740779476987
bond_coeff	176	600	1.37
bond_coeff	177	600	1.5786432065732843
bond_coeff	178	600	1.5786432065732845
bond_coeff	179	600	1.5786432065732845
bond_coeff	180	600	1.3519083019415903
bond_coeff	181	600	1.37
bond_coeff	182	600	1.5864740779476987
bond_coeff	183	600	1.5786432065732843
bond_coeff	184	600	1.5864740779476987
bond_coeff	185	600	1.37
bond_coeff	186	600	1.5786432065732843
bond_coeff	187	600	1.5786432065732845
bond_coeff	188	600	1.5786432065732845
bond_coeff	189	600	1.3519083019415903
bond_coeff	190	600	1.37
bond_coeff	191	600	1.5864740779476987
bond_coeff	192	600	1.5786432065732843
bond_coeff	193	600	1.5864740779476987
bond_coeff	194	600	1.37
bond_coeff	195	600	1.5786432065732843
bond_coeff	196	600	1.5786432065732845
bond_coeff	197	600	1.5786432065732845
bond_coeff	198	600	1.3519083019415903
bond_coeff	199	600	1.37
bond_coeff	200	600	1.5864740779476987
bond_coeff	201	600	1.5786432065732843
bond_coeff	202	600	1.5864740779476987
bond_coeff	203	600	1.37
bond_coeff	204	600	1.5786432065732843
bond_coeff	205	600	1.5786432065732845
bond_coeff	206	600	1.5786432065732845
bond_coeff	207	600	1.3519083019415903
bond_coeff	208	600	1.37
bond_coeff	209	600	1.5864740779476987
bond_coeff	210	600	1.5786432065732843
bond_coeff	211	600	1.5864740779476987
bond_coeff	212	600	1.37
bond_coeff	213	600	1.5786432065732843
bond_coeff	214	600	1.5786432065732845
bond_coeff	215	600	1.5786432065732845
bond_coeff	216	600	1.3519083019415903
bond_coeff	217	600	1.37
bond_coeff	218	600	1.5864740779476987
bond_coeff	219	600	1.5786432065732843
bond_coeff	220	600	1.5864740779476987
bond_coeff	221	600	1.37
bond_coeff	222	600	1.5786432065732843
bond_coeff	223	600	1.5786432065732845
bond_coeff	224	600	1.5786432065732845
bond_coeff	225	600	1.3519083019415903
bond_coeff	226	600	1.37
bond_coeff	227	600	1.5864740779476987
bond_coeff	228	600	1.5786432065732843
bond_coeff	229	600	1.5864740779476987
bond_coeff	230	600	1.37
bond_coeff	231	600	1.5786432065732843
bond_coeff	232	600	1.5786432065732845
bond_coeff	233	600	1.5786432065732845
bond_coeff	234	600	1.3519083019415903
bond_coeff	235	600	1.37
bond_coeff	236	600	1.5864740779476987
bond_coeff	237	600	1.5786432065732843
bond_coeff	238	600	1.5864740779476987
bond_coeff	239	600	1.37
bond_coeff	240	600	1.5786432065732843
bond_coeff	241	600	1.5786432065732845
bond_coeff	242	600	1.5786432065732845
bond_coeff	243	600	1.3519083019415903
bond_coeff	244	600	1.37
bond_coeff	245	600	1.5864740779476987
bond_coeff	246	600	1.5786432065732843
bond_coeff	247	600	1.5864740779476987
bond_coeff	248	600	1.37
bond_coeff	249	600	1.5786432065732843
bond_coeff	250	600	1.5786432065732845
bond_coeff	251	600	1.5786432065732845
bond_coeff	252	600	1.3519083019415903
bond_coeff	253	600	1.37
bond_coeff	254	600	1.5864740779476987
bond_coeff	255	600	1.5786432065732843
bond_coeff	256	600	1.5864740779476987
bond_coeff	257	600	1.37
bond_coeff	258	600	1.5786432065732843
bond_coeff	259	600	1.5786432065732845
bond_coeff	260	600	1.5786432065732845
bond_coeff	261	600	1.3519083019415903
bond_coeff	262	600	1.37
bond_coeff	263	600	1.5864740779476987
bond_coeff	264	600	1.5786432065732843
bond_coeff	265	600	1.5864740779476987
bond_coeff	266	600	1.37
bond_coeff	267	600	1.5786432065732843
bond_coeff	268	600	1.5786432065732845
bond_coeff	269	600	1.5786432065732845
bond_coeff	270	600	1.3519083019415903
bond_coeff	271	600	1.37
bond_coeff	272	600	1.5864740779476987
bond_coeff	273	600	1.5786432065732843
bond_coeff	274	600	1.5864740779476987
bond_coeff	275	600	1.37
bond_coeff	276	600	1.5786432065732843
bond_coeff	277	600	1.5786432065732845
bond_coeff	278	600	1.5786432065732845
bond_coeff	279	600	1.3519083019415903
bond_coeff	280	600	1.37
bond_coeff	281	600	1.5864740779476987
bond_coeff	282	600	1.5786432065732843
bond_coeff	283	600	1.5864740779476987
bond_coeff	284	600	1.37
bond_coeff	285	600	1.5786432065732843
bond_coeff	286	600	1.5786432065732845
bond_coeff	287	600	1.5786432065732845
bond_coeff	288	600	1.3519083019415903
bond_coeff	289	600	1.37
bond_coeff	290	600	1.5864740779476987
bond_coeff	291	600	1.5786432065732843
bond_coeff	292	600	1.5864740779476987
bond_coeff	293	600	1.37
bond_coeff	294	600	1.5786432065732843
bond_coeff	295	600	1.5786432065732845
bond_coeff	296	600	1.5786432065732845
bond_coeff	297	600	1.3519083019415903
bond_coeff	298	600	1.37
bond_coeff	299	600	1.5864740779476987
bond_coeff	300	600	1.5786432065732843
bond_coeff	301	600	1.5864740779476987
bond_coeff	302	600	1.37
bond_coeff	303	600	1.5786432065732843
bond_coeff	304	600	1.5786432065732845
bond_coeff	305	600	1.5786432065732845
bond_coeff	306	600	1.3519083019415903
bond_coeff	307	600	1.37
bond_coeff	308	600	1.5864740779476987
bond_coeff	309	600	1.5786432065732843
bond_coeff	310	600	1.5864740779476987
bond_coeff	311	600	1.37
bond_coeff	312	600	1.5786432065732843
bond_coeff	313	600	1.5786432065732845
bond_coeff	314	600	1.5786432065732845
bond_coeff	315	600	1.3519083019415903
bond_coeff	316	600	1.37
bond_coeff	317	600	1.5864740779476987
bond_coeff	318	600	1.5786432065732843
bond_coeff	319	600	1.5864740779476987
bond_coeff	320	600	1.37
bond_coeff	321	600	1.5786432065732843
bond_coeff	322	600	1.5786432065732845
bond_coeff	323	600	1.5786432065732845
bond_coeff	324	600	1.3519083019415903
bond_coeff	325	600	1.37
bond_coeff	326	600	1.5864740779476987
bond_coeff	327	600	1.5786432065732843
bond_coeff	328	600	1.5864740779476987
bond_coeff	329	600	1.37
bond_coeff	330	600	1.5786432065732843
bond_coeff	331	600	1.5786432065732845
bond_coeff	332	600	1.5786432065732845
bond_coeff	333	600	1.3519083019415903
bond_coeff	334	600	1.37
bond_coeff	335	600	1.5864740779476987
bond_coeff	336	600	1.5786432065732843
bond_coeff	337	600	1.5864740779476987
bond_coeff	338	600	1.37
bond_coeff	339	600	1.5786432065732843
bond_coeff	340	600	1.5786432065732845
bond_coeff	341	600	1.5786432065732845
bond_coeff	342	600	1.3519083019415903
bond_coeff	343	600	1.37
bond_coeff	344	600	1.5864740779476987
bond_coeff	345	600	1.5786432065732843
bond_coeff	346	600	1.5864740779476987
bond_coeff	347	600	1.37
bond_coeff	348	600	1.5786432065732843
bond_coeff	349	600	1.5786432065732845
bond_coeff	350	600	1.5786432065732845
bond_coeff	351	600	1.3519083019415903
bond_coeff	352	600	1.37
bond_coeff	353	600	1.5864740779476987
bond_coeff	354	600	1.5786432065732843
bond_coeff	355	600	1.5864740779476987
bond_coeff	356	600	1.37
bond_coeff	357	600	1.5786432065732843
bond_coeff	358	600	1.5786432065732845
bond_coeff	359	600	1.5786432065732845
bond_coeff	360	600	1.3519083019415903
bond_coeff	361	600	1.37
bond_coeff	362	600	1.5864740779476987
bond_coeff	363	600	1.5786432065732843
bond_coeff	364	600	1.5864740779476987
bond_coeff	365	600	1.37
bond_coeff	366	600	1.5786432065732843
bond_coeff	367	600	1.5786432065732845
bond_coeff	368	600	1.5786432065732845
bond_coeff	369	600	1.3519083019415903
bond_coeff	370	600	1.37
bond_coeff	371	600	1.5864740779476987
bond_coeff	372	600	1.5786432065732843
bond_coeff	373	600	1.5864740779476987
bond_coeff	374	600	1.37
bond_coeff	375	600	1.5786432065732843
bond_coeff	376	600	1.5786432065732845
bond_coeff	377	600	1.5786432065732845
bond_coeff	378	600	1.3519083019415903
bond_coeff	379	600	1.37
bond_coeff	380	600	1.5864740779476987
bond_coeff	381	600	1.5786432065732843
bond_coeff	382	600	1.5864740779476987
bond_coeff	383	600	1.37
bond_coeff	384	600	1.5786432065732843
bond_coeff	385	600	1.5786432065732845
bond_coeff	386	600	1.5786432065732845
bond_coeff	387	600	1.3519083019415903
bond_coeff	388	600	1.37
bond_coeff	389	600	1.5864740779476987
bond_coeff	390	600	1.5786432065732843
bond_coeff	391	600	1.5864740779476987
bond_coeff	392	600	1.37
bond_coeff	393	600	1.5786432065732843
bond_coeff	394	600	1.5786432065732845
bond_coeff	395	600	1.5786432065732845
bond_coeff	396	600	1.3519083019415903
bond_coeff	397	600	1.37
bond_coeff	398	600	1.5864740779476987
bond_coeff	399	600	1.5786432065732843
bond_coeff	400	600	1.5864740779476987
bond_coeff	401	600	1.37
bond_coeff	402	600	1.5786432065732843
bond_coeff	403	600	1.5786432065732845
bond_coeff	404	600	1.5786432065732845
bond_coeff	405	600	1.3519083019415903
bond_coeff	406	600	1.37
bond_coeff	407	600	1.5864740779476987
bond_coeff	408	600	1.5786432065732843
bond_coeff	409	600	1.5864740779476987
bond_coeff	410	600	1.37
bond_coeff	411	600	1.5786432065732843
bond_coeff	412	600	1.5786432065732845
bond_coeff	413	600	1.5786432065732845
bond_coeff	414	600	1.3519083019415903
bond_coeff	415	600	1.37
bond_coeff	416	600	1.5864740779476987
bond_coeff	417	600	1.5786432065732843
bond_coeff	418	600	1.5864740779476987
bond_coeff	419	600	1.37
bond_coeff	420	600	1.5786432065732843
bond_coeff	421	600	1.5786432065732845
bond_coeff	422	600	1.5786432065732845
bond_coeff	423	600	1.3519083019415903
bond_coeff	424	600	1.37
bond_coeff	425	600	1.5864740779476987
bond_coeff	426	600	1.5786432065732843
bond_coeff	427	600	1.5864740779476987
bond_coeff	428	600	1.37
bond_coeff	429	600	1.5786432065732843
bond_coeff	430	600	1.5786432065732845
bond_coeff	431	600	1.5786432065732845
bond_coeff	432	600	1.3519083019415903
bond_coeff	433	600	1.37
bond_coeff	434	600	1.5864740779476987
bond_coeff	435	600	1.5786432065732843
bond_coeff	436	600	1.5864740779476987
bond_coeff	437	600	1.37
bond_coeff	438	600	1.5786432065732843
bond_coeff	439	600	1.5786432065732845
bond_coeff	440	600	1.5786432065732845
bond_coeff	441	600	1.3519083019415903
bond_coeff	442	600	1.37
bond_coeff	443	600	1.5864740779476987
bond_coeff	444	600	1.5786432065732843
bond_coeff	445	600	1.5864740779476987
bond_coeff	446	600	1.37
bond_coeff	447	600	1.5786432065732843
bond_coeff	448	600	1.5786432065732845
bond_coeff	449	600	1.5786432065732845
bond_coeff	450	600	1.3519083019415903
bond_coeff	451	600	1.37
bond_coeff	452	600	1.5864740779476987
bond_coeff	453	600	1.5786432065732843
bond_coeff	454	600	1.5864740779476987
bond_coeff	455	600	1.37
bond_coeff	456	600	1.5786432065732843
bond_coeff	457	600	1.5786432065732845
bond_coeff	458	600	1.5786432065732845
bond_coeff	459	600	1.3519083019415903
bond_coeff	460	600	1.37
bond_coeff	461	600	1.5864740779476987
bond_coeff	462	600	1.5786432065732843
bond_coeff	463	600	1.5864740779476987
bond_coeff	464	600	1.37
bond_coeff	465	600	1.5786432065732843
bond_coeff	466	600	1.5786432065732845
bond_coeff	467	600	1.5786432065732845
bond_coeff	468	600	1.3519083019415903
bond_coeff	469	600	1.37
bond_coeff	470	600	1.5864740779476987
bond_coeff	471	600	1.5786432065732843
bond_coeff	472	600	1.5864740779476987
bond_coeff	473	600	1.37
bond_coeff	474	600	1.5786432065732843
bond_coeff	475	600	1.5786432065732845
bond_coeff	476	600	1.5786432065732845
bond_coeff	477	600	1.3519083019415903
bond_coeff	478	600	1.37
bond_coeff	479	600	1.5864740779476987
bond_coeff	480	600	1.5786432065732843
bond_coeff	481	600	1.5864740779476987
bond_coeff	482	600	1.37
bond_coeff	483	600	1.5786432065732843
bond_coeff	484	600	1.5786432065732845
bond_coeff	485	600	1.5786432065732845
bond_coeff	486	600	1.3519083019415903
bond_coeff	487	600	1.37
bond_coeff	488	600	1.5864740779476987
bond_coeff	489	600	1.5786432065732843
bond_coeff	490	600	1.5864740779476987
bond_coeff	491	600	1.37
bond_coeff	492	600	1.5786432065732843
bond_coeff	493	600	1.5786432065732845
bond_coeff	494	600	1.5786432065732845
bond_coeff	495	600	1.3519083019415903
bond_coeff	496	600	1.37
bond_coeff	497	600	1.5864740779476987
bond_coeff	498	600	1.5786432065732843
bond_coeff	499	600	1.5864740779476987
bond_coeff	500	600	1.37
bond_coeff	501	600	1.5786432065732843
bond_coeff	502	600	1.5786432065732845
bond_coeff	503	600	1.5786432065732845
bond_coeff	504	600	1.3519083019415903
bond_coeff	505	600	1.37
bond_coeff	506	600	1.5864740779476987
bond_coeff	507	600	1.5786432065732843
bond_coeff	508	600	1.5864740779476987
bond_coeff	509	600	1.37
bond_coeff	510	600	1.5786432065732843
bond_coeff	511	600	1.5786432065732845
bond_coeff	512	600	1.5786432065732845
bond_coeff	513	600	1.3519083019415903
bond_coeff	514	600	1.37
bond_coeff	515	600	1.5864740779476987
bond_coeff	516	600	1.5786432065732843
bond_coeff	517	600	1.5864740779476987
bond_coeff	518	600	1.37
bond_coeff	519	600	1.5786432065732843
bond_coeff	520	600	1.5786432065732845
bond_coeff	521	600	1.5786432065732845
bond_coeff	522	600	1.3519083019415903
bond_coeff	523	600	1.37
bond_coeff	524	600	1.5864740779476987
bond_coeff	525	600	1.5786432065732843
bond_coeff	526	600	1.5864740779476987
bond_coeff	527	600	1.37
bond_coeff	528	600	1.5786432065732843
bond_coeff	529	600	1.5786432065732845
bond_coeff	530	600	1.5786432065732845
bond_coeff	531	600	1.3519083019415903
bond_coeff	532	600	1.37
bond_coeff	533	600	1.5864740779476987
bond_coeff	534	600	1.5786432065732843
bond_coeff	535	600	1.5864740779476987
bond_coeff	536	600	1.37
bond_coeff	537	600	1.5786432065732843
bond_coeff	538	600	1.5786432065732845
bond_coeff	539	600	1.5786432065732845
bond_coeff	540	600	1.3519083019415903
bond_coeff	541	600	1.37
bond_coeff	542	600	1.5864740779476987
bond_coeff	543	600	1.5786432065732843
bond_coeff	544	600	1.5864740779476987
bond_coeff	545	600	1.37
bond_coeff	546	600	1.5786432065732843
bond_coeff	547	600	1.5786432065732845
bond_coeff	548	600	1.5786432065732845
bond_coeff	549	600	1.3519083019415903
bond_coeff	550	600	1.37
bond_coeff	551	600	1.5864740779476987
bond_coeff	552	600	1.5786432065732843
bond_coeff	553	600	1.5864740779476987
bond_coeff	554	600	1.37
bond_coeff	555	600	1.5786432065732843
bond_coeff	556	600	1.5786432065732845
bond_coeff	557	600	1.5786432065732845
bond_coeff	558	600	1.3519083019415903
bond_coeff	559	600	1.37
bond_coeff	560	600	1.5864740779476987
bond_coeff	561	600	1.5786432065732843
bond_coeff	562	600	1.5864740779476987
bond_coeff	563	600	1.37
bond_coeff	564	600	1.5786432065732843
bond_coeff	565	600	1.5786432065732845
bond_coeff	566	600	1.5786432065732845
bond_coeff	567	600	1.3519083019415903
bond_coeff	568	600	1.37
bond_coeff	569	600	1.5864740779476987
bond_coeff	570	600	1.5786432065732843
bond_coeff	571	600	1.5864740779476987
bond_coeff	572	600	1.37
bond_coeff	573	600	1.5786432065732843
bond_coeff	574	600	1.5786432065732845
bond_coeff	575	600	1.5786432065732845
bond_coeff	576	600	1.3519083019415903
bond_coeff	577	600	1.37
bond_coeff	578	600	1.5864740779476987
bond_coeff	579	600	1.5786432065732843
bond_coeff	580	600	1.5864740779476987
bond_coeff	581	600	1.37
bond_coeff	582	600	1.5786432065732843
bond_coeff	583	600	1.5786432065732845
bond_coeff	584	600	1.5786432065732845
bond_coeff	585	600	1.3519083019415903
bond_coeff	586	600	1.37
bond_coeff	587	600	1.5864740779476987
bond_coeff	588	600	1.5786432065732843
bond_coeff	589	600	1.5864740779476987
bond_coeff	590	600	1.37
bond_coeff	591	600	1.5786432065732843
bond_coeff	592	600	1.5786432065732845
bond_coeff	593	600	1.5786432065732845
bond_coeff	594	600	1.3519083019415903
bond_coeff	595	600	1.37
bond_coeff	596	600	1.5864740779476987
bond_coeff	597	600	1.5786432065732843
bond_coeff	598	600	1.5864740779476987
bond_coeff	599	600	1.37
bond_coeff	600	600	1.5786432065732843
bond_coeff	601	600	1.5786432065732845
bond_coeff	602	600	1.5786432065732845
bond_coeff	603	600	1.3519083019415903
bond_coeff	604	600	1.37
bond_coeff	605	600	1.5864740779476987
bond_coeff	606	600	1.5786432065732843
bond_coeff	607	600	1.5864740779476987
bond_coeff	608	600	1.37
bond_coeff	609	600	1.5786432065732843
bond_coeff	610	600	1.5786432065732845
bond_coeff	611	600	1.5786432065732845
bond_coeff	612	600	1.3519083019415903
bond_coeff	613	600	1.37
bond_coeff	614	600	1.5864740779476987
bond_coeff	615	600	1.5786432065732843
bond_coeff	616	600	1.5864740779476987
bond_coeff	617	600	1.37
bond_coeff	618	600	1.5786432065732843
bond_coeff	619	600	1.5786432065732845
bond_coeff	620	600	1.5786432065732845
bond_coeff	621	600	1.3519083019415903
bond_coeff	622	600	1.37
bond_coeff	623	600	1.5864740779476987
bond_coeff	624	600	1.5786432065732843
bond_coeff	625	600	1.5864740779476987
bond_coeff	626	600	1.37
bond_coeff	627	600	1.5786432065732843
bond_coeff	628	600	1.5786432065732845
bond_coeff	629	600	1.5786432065732845
bond_coeff	630	600	1.3519083019415903
bond_coeff	631	600	1.37
bond_coeff	632	600	1.5864740779476987
bond_coeff	633	600	1.5786432065732843
bond_coeff	634	600	1.5864740779476987
bond_coeff	635	600	1.37
bond_coeff	636	600	1.5786432065732843
bond_coeff	637	600	1.5786432065732845
bond_coeff	638	600	1.5786432065732845
bond_coeff	639	600	1.3519083019415903
bond_coeff	640	600	1.37
bond_coeff	641	600	1.5864740779476987
bond_coeff	642	600	1.5786432065732843
bond_coeff	643	600	1.5864740779476987
bond_coeff	644	600	1.37
bond_coeff	645	600	1.5786432065732843
bond_coeff	646	600	1.5786432065732845
bond_coeff	647	600	1.5786432065732845
bond_coeff	648	600	1.3519083019415903
bond_coeff	649	600	1.37
bond_coeff	650	600	1.5864740779476987
bond_coeff	651	600	1.5786432065732843
bond_coeff	652	600	1.5864740779476987
bond_coeff	653	600	1.37
bond_coeff	654	600	1.5786432065732843
bond_coeff	655	600	1.5786432065732845
bond_coeff	656	600	1.5786432065732845
bond_coeff	657	600	1.3519083019415903
bond_coeff	658	600	1.37
bond_coeff	659	600	1.5864740779476987
bond_coeff	660	600	1.5786432065732843
bond_coeff	661	600	1.5864740779476987
bond_coeff	662	600	1.37
bond_coeff	663	600	1.5786432065732843
bond_coeff	664	600	1.5786432065732845
bond_coeff	665	600	1.5786432065732845
bond_coeff	666	600	1.3519083019415903
bond_coeff	667	600	1.37
bond_coeff	668	600	1.5864740779476987
bond_coeff	669	600	1.5786432065732843
bond_coeff	670	600	1.5864740779476987
bond_coeff	671	600	1.37
bond_coeff	672	600	1.5786432065732843
bond_coeff	673	600	1.5786432065732845
bond_coeff	674	600	1.5786432065732845
bond_coeff	675	600	1.3519083019415903
bond_coeff	676	600	1.37
bond_coeff	677	600	1.5864740779476987
bond_coeff	678	600	1.5786432065732843
bond_coeff	679	600	1.5864740779476987
bond_coeff	680	600	1.37
bond_coeff	681	600	1.5786432065732843
bond_coeff	682	600	1.5786432065732845
bond_coeff	683	600	1.5786432065732845
bond_coeff	684	600	1.3519083019415903
bond_coeff	685	600	1.37
bond_coeff	686	600	1.5864740779476987
bond_coeff	687	600	1.5786432065732843
bond_coeff	688	600	1.5864740779476987
bond_coeff	689	600	1.37
bond_coeff	690	600	1.5786432065732843
bond_coeff	691	600	1.5786432065732845
bond_coeff	692	600	1.5786432065732845
bond_coeff	693	600	1.3519083019415903
bond_coeff	694	600	1.37
bond_coeff	695	600	1.5864740779476987
bond_coeff	696	600	1.5786432065732843
bond_coeff	697	600	1.5864740779476987
bond_coeff	698	600	1.37
bond_coeff	699	600	1.5786432065732843
bond_coeff	700	600	1.5786432065732845
bond_coeff	701	600	1.5786432065732845
bond_coeff	702	600	1.3519083019415903
bond_coeff	703	600	1.37
bond_coeff	704	600	1.5864740779476987
bond_coeff	705	600	1.5786432065732843
bond_coeff	706	600	1.5864740779476987
bond_coeff	707	600	1.37
bond_coeff	708	600	1.5786432065732843
bond_coeff	709	600	1.5786432065732845
bond_coeff	710	600	1.5786432065732845
bond_coeff	711	600	1.3519083019415903
bond_coeff	712	600	1.37
bond_coeff	713	600	1.5864740779476987
bond_coeff	714	600	1.5786432065732843
bond_coeff	715	600	1.5864740779476987
bond_coeff	716	600	1.37
bond_coeff	717	600	1.5786432065732843
bond_coeff	718	600	1.5786432065732845
bond_coeff	719	600	1.5786432065732845
bond_coeff	720	600	1.3519083019415903
bond_coeff	721	600	1.37
bond_coeff	722	600	1.5864740779476987
bond_coeff	723	600	1.5786432065732843
bond_coeff	724	600	1.5864740779476987
bond_coeff	725	600	1.37
bond_coeff	726	600	1.5786432065732843
bond_coeff	727	600	1.5786432065732845
bond_coeff	728	600	1.5786432065732845
bond_coeff	729	600	1.3519083019415903
bond_coeff	730	600	1.37
bond_coeff	731	600	1.5864740779476987
bond_coeff	732	600	1.5786432065732843
bond_coeff	733	600	1.5864740779476987
bond_coeff	734	600	1.37
bond_coeff	735	600	1.5786432065732843
bond_coeff	736	600	1.5786432065732845
bond_coeff	737	600	1.5786432065732845
bond_coeff	738	600	1.3519083019415903
bond_coeff	739	600	1.37
bond_coeff	740	600	1.5864740779476987
bond_coeff	741	600	1.5786432065732843
bond_coeff	742	600	1.5864740779476987
bond_coeff	743	600	1.37
bond_coeff	744	600	1.5786432065732843
bond_coeff	745	600	1.5786432065732845
bond_coeff	746	600	1.5786432065732845
bond_coeff	747	600	1.3519083019415903
bond_coeff	748	600	1.37
bond_coeff	749	600	1.5864740779476987
bond_coeff	750	600	1.5786432065732843
bond_coeff	751	600	1.5864740779476987
bond_coeff	752	600	1.37
bond_coeff	753	600	1.5786432065732843
bond_coeff	754	600	1.5786432065732845
bond_coeff	755	600	1.5786432065732845
bond_coeff	756	600	1.3519083019415903
bond_coeff	757	600	1.37
bond_coeff	758	600	1.5864740779476987
bond_coeff	759	600	1.5786432065732843
bond_coeff	760	600	1.5864740779476987
bond_coeff	761	600	1.37
bond_coeff	762	600	1.5786432065732843
bond_coeff	763	600	1.5786432065732845
bond_coeff	764	600	1.5786432065732845
bond_coeff	765	600	1.3519083019415903
bond_coeff	766	600	1.37
bond_coeff	767	600	1.5864740779476987
bond_coeff	768	600	1.5786432065732843
bond_coeff	769	600	1.5864740779476987
bond_coeff	770	600	1.37
bond_coeff	771	600	1.5786432065732843
bond_coeff	772	600	1.5786432065732845
bond_coeff	773	600	1.5786432065732845
bond_coeff	774	600	1.3519083019415903
bond_coeff	775	600	1.37
bond_coeff	776	600	1.5864740779476987
bond_coeff	777	600	1.5786432065732843
bond_coeff	778	600	1.5864740779476987
bond_coeff	779	600	1.37
bond_coeff	780	600	1.5786432065732843
bond_coeff	781	600	1.5786432065732845
bond_coeff	782	600	1.5786432065732845
bond_coeff	783	600	1.3519083019415903
bond_coeff	784	600	1.37
bond_coeff	785	600	1.5864740779476987
bond_coeff	786	600	1.5786432065732843
bond_coeff	787	600	1.5864740779476987
bond_coeff	788	600	1.37
bond_coeff	789	600	1.5786432065732843
bond_coeff	790	600	1.5786432065732845
bond_coeff	791	600	1.5786432065732845
bond_coeff	792	600	1.3519083019415903
bond_coeff	793	600	1.37
bond_coeff	794	600	1.5864740779476987
bond_coeff	795	600	1.5786432065732843
bond_coeff	796	600	1.5864740779476987
bond_coeff	797	600	1.37
bond_coeff	798	600	1.5786432065732843
bond_coeff	799	600	1.5786432065732845
bond_coeff	800	600	1.5786432065732845
bond_coeff	801	600	1.3519083019415903
bond_coeff	802	600	1.37
bond_coeff	803	600	1.5864740779476987
bond_coeff	804	600	1.5786432065732843
bond_coeff	805	600	1.5864740779476987
bond_coeff	806	600	1.37
bond_coeff	807	600	1.5786432065732843
bond_coeff	808	600	1.5786432065732845
bond_coeff	809	600	1.5786432065732845
bond_coeff	810	600	1.3519083019415903
bond_coeff	811	600	1.37
bond_coeff	812	600	1.5864740779476987
bond_coeff	813	600	1.5786432065732843
bond_coeff	814	600	1.5864740779476987
bond_coeff	815	600	1.37
bond_coeff	816	600	1.5786432065732843
bond_coeff	817	600	1.5786432065732845
bond_coeff	818	600	1.5786432065732845
bond_coeff	819	600	1.3519083019415903
bond_coeff	820	600	1.37
bond_coeff	821	600	1.5864740779476987
bond_coeff	822	600	1.5786432065732843
bond_coeff	823	600	1.5864740779476987
bond_coeff	824	600	1.37